nApps = 201
nRes = 9
nActs = 406
nNetworks = 6

assignmentToResources = [1,3,3,2,2,3,1,3,1,2,2,3,2,3,2,1,2,2,3,1,3,3,3,2,2,1,3,1,1,3,2,3,3,2,1,1,3,3,1,3,1,2,1,3,1,3,1,3,3,3,2,2,1,3,3,1,3,1,3,3,2,3,1,1,1,3,2,3,1,2,1,1,2,3,3,3,1,3,2,3,1,3,1,3,1,1,1,3,3,2,3,3,2,3,1,3,2,2,2,2,4,4,6,6,6,5,5,5,6,6,6,4,6,4,4,5,5,5,5,5,5,6,6,6,5,5,5,5,5,5,5,6,6,6,6,6,4,6,6,6,6,5,5,5,6,4,4,4,4,6,6,5,5,5,6,6,5,4,4,4,4,6,4,6,6,4,4,5,4,4,6,6,4,4,6,4,6,6,6,5,5,4,4,4,4,6,6,4,4,4,4,6,6,6,6,5,5,4,4,4,4,4,4,4,4,4,5,4,4,6,4,6,6,6,4,4,6,4,4,6,6,6,6,6,6,6,6,6,5,4,4,5,5,4,8,5,9,5,9,4,9,6,7,6,7,5,7,4,9,6,8,5,9,4,9,5,7,6,7,6,8,5,7,4,9,6,7,4,8,5,9,4,8,9,8,7,8,7,9,9,9,7,8,7,9,7,9,8,9,9,9,9,9,7,8,8,8,9,7,9,9,9,7,9,7,7,7,8,7,9,7,8,8,7,9,9,7,8,8,9,9,9,7,7,9,9,7,7,7,7,9,8,9,9,8,9,8,7,8,8,7,9,9,8,8,9,8,7,9,7,8,7,9,9,9,9,9,8,8,7,9,8,8,9,8,8,7,7,7,9,8,8,9,9,9,9,9,8,9,9,9,9,8,8,7,7,8,8,8,7,8,8,7,8,7,7,7,8,7,8,8,7,9,8,7,7];

processingTimes = [152,104,48,120,104,40,112,128,160,136,128,80,120,136,104,88,72,120,128,80,48,136,104,168,112,120,128,160,128,152,128,160,168,128,96,128,136,136,112,128,152,128,64,88,72,128,136,104,136,80,136,80,104,104,112,128,112,144,120,88,152,152,136,112,160,64,136,152,112,56,120,128,104,112,72,160,104,120,168,104,112,120,128,72,136,96,96,104,120,104,128,168,96,128,128,136,136,160,88,136,4,3,13,3,4,500,3,3,500,3,8,3,13,4,5,4,4,4,4,3,4,3,3,3,500,4,500,500,3,3,3,4,500,3,8,8,500,500,3,4,3,4,3,3,500,4,4,3,7,3,500,3,4,4,4,3,100,4,4,4,3,3,3,8,8,8,3,4,3,3,4,4,3,3,500,8,500,3,8,4,3,4,500,3,500,500,4,4,5,100,3,5,4,3,3,100,23,4,500,3,23,23,3,3,3,500,500,5,8,3,3,500,4,4,4,3,4,100,100,500,4,4,4,3,3,500,4,4,13,3,500,5,4,3,3,4,4,500,500,500,500,500,500,500,500,3,3,6,6,8,8,8,8,3,3,4,4,3,3,4,4,4,4,4,4,3,3,3,3,26,26,3,3,4,3,13,3,4,500,3,3,500,3,8,3,13,4,5,4,4,4,4,3,4,3,3,3,500,4,500,500,3,3,3,4,500,3,8,8,500,500,3,4,3,4,3,3,500,4,4,3,7,3,500,3,4,4,4,3,100,4,4,4,3,3,3,8,8,8,3,4,3,3,4,4,3,3,500,8,500,3,8,4,3,4,500,3,500,500,4,4,5,100,3,5,4,3,3,100,23,4,500,3,23,23,3,3,3,500,500,5,8,3,3,500,4,4,4,3,4,100,100,500,4,4,4,3,3,500,4,4,13,3,500,5,4];

periods = [20000,10000,10000,100000,20000,10000,20000,20000,10000,100000,20000,10000,10000,1000,10000,10000,100000,100000,20000,5000,100000,10000,10000,10000,10000,10000,20000,20000,10000,100000,20000,50000,20000,1000,100000,20000,20000,100000,20000,10000,20000,100000,10000,20000,20000,10000,10000,20000,100000,20000,100000,100000,10000,20000,20000,10000,100000,1000,100000,100000,1000,5000,20000,20000,20000,20000,10000,100000,20000,20000,50000,20000,20000,100000,10000,100000,10000,100000,100000,20000,20000,10000,20000,20000,100000,100000,1000,20000,10000,10000,20000,2000,10000,100000,10000,10000,100000,20000,50000,20000,20000,20000,10000,10000,10000,100000,100000,20000,10000,10000,10000,20000,20000,10000,10000,100000,100000,20000,20000,20000,20000,10000,1000,1000,10000,10000,10000,100000,100000,100000,100000,20000,20000,20000,20000,20000,5000,100000,100000,10000,10000,10000,10000,10000,20000,20000,10000,10000,10000,100000,100000,20000,20000,20000,20000,20000,1000,100000,100000,20000,20000,100000,20000,10000,10000,20000,20000,100000,10000,10000,20000,20000,20000,20000,10000,10000,20000,100000,20000,100000,100000,10000,10000,10000,10000,20000,20000,10000,10000,1000,1000,100000,100000,100000,100000,1000,1000,20000,20000,20000,20000,20000,20000,20000,20000,20000,20000,50000,20000,100000,10000,100000,20000,10000,20000,20000,20000,1000,1000,20000,20000,10000,10000,10000,10000,20000,2000,2000,10000,10000,10000,100000,20000,20000,20000,20000,20000,10000,10000,10000,10000,10000,10000,10000,10000,20000,20000,20000,20000,20000,20000,20000,20000,20000,20000,20000,20000,20000,20000,10000,10000,10000,10000,10000,10000,10000,10000,10000,10000,1000,1000,1000,1000,20000,20000,10000,10000,10000,100000,100000,20000,10000,10000,10000,20000,20000,10000,10000,100000,100000,20000,20000,20000,20000,10000,1000,1000,10000,10000,10000,100000,100000,100000,100000,20000,20000,20000,20000,20000,5000,100000,100000,10000,10000,10000,10000,10000,20000,20000,10000,10000,10000,100000,100000,20000,20000,20000,20000,20000,1000,100000,100000,20000,20000,100000,20000,10000,10000,20000,20000,100000,10000,10000,20000,20000,20000,20000,10000,10000,20000,100000,20000,100000,100000,10000,10000,10000,10000,20000,20000,10000,10000,1000,1000,100000,100000,100000,100000,1000,1000,20000,20000,20000,20000,20000,20000,20000,20000,20000,20000,50000,20000,100000,10000,100000,20000,10000,20000,20000,20000,1000,1000,20000,20000,10000,10000,10000,10000,20000,2000,2000,10000,10000,10000,100000,20000];

assignmentToClusters = [1,2,3,4,5,6,7,8,9,10,11,12,6,13,14,3,4,4,15,16,17,3,18,19,6,3,20,5,21,22,23,24,25,26,27,28,29,17,30,31,32,4,33,34,35,36,37,38,17,5,4,4,39,40,41,42,43,13,43,44,13,45,46,47,5,1,3,43,48,5,49,50,1,51,3,52,6,53,4,54,55,56,57,5,58,59,60,61,62,63,5,64,65,43,6,6,66,5,67,68,69,70,71,72,73,74,75,76,77,78,79,80,81,82,83,84,85,86,87,88,89,90,91,92,93,94,95,96,97,98,99,100,101,102,103,104,105,106,107,108,109,110,111,112,113,114,115,116,117,118,119,120,121,122,123,124,125,126,127,128,129,130,131,132,133,134,135,136,137,138,139,140,141,142,143,144,145,146,147,148,149,150,151,152,153,154,155,156,157,158,159,160,161,162,163,164,165,166,167,168,169,170,171,172,173,174,175,176,177,178,179,180,181,182,183,184,185,186,187,188,189,190,191,192,193,194,195,196,197,198,199,200,201,1,1,1,1,3,3,3,3,3,3,3,3,5,5,5,5,5,5,5,5,5,5,5,5,5,5,6,6,6,6,6,6,6,6,6,6,13,13,13,13,69,70,71,72,73,74,75,76,77,78,79,80,81,82,83,84,85,86,87,88,89,90,91,92,93,94,95,96,97,98,99,100,101,102,103,104,105,106,107,108,109,110,111,112,113,114,115,116,117,118,119,120,121,122,123,124,125,126,127,128,129,130,131,132,133,134,135,136,137,138,139,140,141,142,143,144,145,146,147,148,149,150,151,152,153,154,155,156,157,158,159,160,161,162,163,164,165,166,167,168,169,170,171,172,173,174,175,176,177,178,179,180,181,182,183,184,185,186,187,188,189,190,191,192,193,194,195,196,197,198,199,200,201];

precedenceAdjList = [[],[],[238,240],[17],[],[],[],[],[],[],[],[],[260],[270],[],[242],[78],[],[],[],[48],[],[],[],[268],[244],[],[246],[],[],[],[],[],[],[],[],[],[],[],[],[],[],[],[],[],[],[],[],[37],[248],[51],[78],[],[],[],[],[93],[],[67],[],[272],[],[],[],[256,258],[236],[],[],[],[],[],[],[234],[],[21],[],[262],[],[3,41],[],[],[],[],[252],[],[],[],[],[],[],[254],[],[],[58],[266],[264],[],[250],[],[],[],[],[],[],[],[],[],[],[],[],[],[],[],[],[],[],[],[],[],[],[],[],[],[],[],[],[],[],[],[],[],[],[],[],[],[],[],[],[],[],[],[],[],[],[],[],[],[],[],[],[],[],[],[],[],[],[],[],[],[],[],[],[],[],[],[],[],[],[],[],[],[],[],[],[],[],[],[],[],[],[],[],[],[],[],[],[],[],[],[],[],[],[],[],[],[],[],[],[],[],[],[],[],[],[],[],[],[],[],[],[],[],[],[],[],[],[],[],[],[],[],[],[],[],[],[],[],[],[],[],[],[],[],[0],[233],[72],[235],[66],[237],[15],[239],[74],[241],[2],[243],[4],[245],[27],[247],[49],[249],[97],[251],[27],[253],[69],[255],[90],[257],[5],[259],[12],[261],[76],[263],[95],[265],[76],[267],[60],[269],[57],[271],[100],[101],[102],[103],[104],[105],[106],[107],[108],[109],[110],[111],[112],[113],[114],[115],[116],[117],[118],[119],[120],[121],[122],[123],[124],[125],[126],[127],[128],[129],[130],[131],[132],[133],[134],[135],[136],[137],[138],[139],[140],[141],[142],[143],[144],[145],[146],[147],[148],[149],[150],[151],[152],[153],[154],[155],[156],[157],[158],[159],[160],[161],[162],[163],[164],[165],[166],[167],[168],[169],[170],[171],[172],[173],[174],[175],[176],[177],[178],[179],[180],[181],[182],[183],[184],[185],[186],[187],[188],[189],[190],[191],[192],[193],[194],[195],[196],[197],[198],[199],[200],[201],[202],[203],[204],[205],[206],[207],[208],[209],[210],[211],[212],[213],[214],[215],[216],[217],[218],[219],[220],[221],[222],[223],[224],[225],[226],[227],[228],[229],[230],[231],[232]];